c 
p cnf 119 199
19 -2 21 0
-21 -6 -16 0
-14 22 23 0
-14 22 -23 0
-14 -22 23 0
-14 -22 -23 0
-9 24 25 0
-9 24 -25 0
-9 -24 25 0
-9 -24 -25 0
-13 14 -16 0
-17 -6 26 0
-17 -6 -26 0
8 -19 3 0
-11 -4 27 0
-27 5 12 0
-6 15 28 0
-6 15 -28 0
-4 19 -9 0
-6 -4 29 0
-29 2 30 0
-30 12 -16 0
-14 -9 -16 0
-12 31 32 0
-12 31 -32 0
-12 -31 32 0
-12 -31 -32 0
-16 -12 33 0
-33 10 34 0
-34 -9 20 0
-14 11 35 0
-35 17 36 0
-36 -13 6 0
-1 17 37 0
-37 -19 10 0
-9 38 39 0
-9 38 -39 0
-9 -38 39 0
-9 -38 -39 0
-19 -4 40 0
-40 20 -11 0
-8 19 41 0
-41 2 10 0
9 42 43 0
9 42 -43 0
9 -42 43 0
9 -42 -43 0
-8 44 45 0
-8 44 -45 0
-8 -44 45 0
-8 -44 -45 0
-4 -16 46 0
-46 8 -1 0
18 1 9 0
-9 17 19 0
-7 -5 47 0
-47 -12 -10 0
-9 20 48 0
-48 16 49 0
-49 -4 -3 0
19 -20 50 0
-50 -10 -7 0
19 14 51 0
19 14 -51 0
-10 18 52 0
-10 18 -52 0
-9 4 53 0
-9 4 -53 0
14 -6 -20 0
2 -14 -1 0
-3 -17 54 0
-54 -9 55 0
-55 -15 -13 0
-14 -3 56 0
-56 16 57 0
-57 13 7 0
12 13 58 0
-58 -10 59 0
-59 18 -9 0
-16 -2 -7 0
-6 60 61 0
-6 60 -61 0
-6 -60 61 0
-6 -60 -61 0
-19 62 63 0
-19 62 -63 0
-19 -62 63 0
-19 -62 -63 0
-2 64 65 0
-2 64 -65 0
-2 -64 65 0
-2 -64 -65 0
15 -2 66 0
-66 -9 67 0
-67 16 -18 0
-20 4 68 0
-68 5 3 0
-7 69 70 0
-7 69 -70 0
-7 -69 70 0
-7 -69 -70 0
-16 -7 71 0
-16 -7 -71 0
-12 72 73 0
-12 72 -73 0
-12 -72 73 0
-12 -72 -73 0
3 -7 74 0
-74 -20 75 0
-75 -4 16 0
-16 76 77 0
-16 76 -77 0
-16 -76 77 0
-16 -76 -77 0
-15 78 79 0
-15 78 -79 0
-15 -78 79 0
-15 -78 -79 0
-16 -1 80 0
-16 -1 -80 0
-5 81 82 0
-5 81 -82 0
-5 -81 82 0
-5 -81 -82 0
7 11 83 0
-83 -6 2 0
20 6 84 0
20 6 -84 0
6 13 85 0
-85 20 86 0
-86 -1 2 0
-19 -17 -5 0
-15 -1 -20 0
-7 16 -3 0
10 -9 87 0
10 -9 -87 0
18 6 88 0
-88 10 -19 0
-2 19 89 0
-2 19 -89 0
-13 -8 -12 0
12 -14 18 0
-6 -17 90 0
-90 18 2 0
8 -14 91 0
-91 4 6 0
-17 -8 92 0
-92 13 93 0
-93 -1 -7 0
-13 94 95 0
-13 94 -95 0
-13 -94 95 0
-13 -94 -95 0
-18 9 96 0
-96 8 -14 0
-19 14 97 0
-97 15 -5 0
20 98 99 0
20 98 -99 0
20 -98 99 0
20 -98 -99 0
-8 100 101 0
-8 100 -101 0
-8 -100 101 0
-8 -100 -101 0
-7 -15 102 0
-102 8 103 0
-103 19 12 0
10 104 105 0
10 104 -105 0
10 -104 105 0
10 -104 -105 0
8 -17 106 0
-106 3 -2 0
2 -7 107 0
-107 8 108 0
-108 13 17 0
-5 109 110 0
-5 109 -110 0
-5 -109 110 0
-5 -109 -110 0
1 -7 -4 0
6 -4 13 0
19 -10 111 0
-111 -7 112 0
-112 -12 -3 0
-5 113 114 0
-5 113 -114 0
-5 -113 114 0
-5 -113 -114 0
19 -5 115 0
19 -5 -115 0
13 -3 116 0
-116 -2 117 0
-117 -16 -20 0
19 -14 118 0
-118 10 -8 0
-11 19 119 0
-11 19 -119 0
